
Welcome to IBM(R) ILOG(R) CPLEX(R) Interactive Optimizer 22.1.1.0
  with Simplex, Mixed Integer & Barrier Optimizers
5725-A06 5725-A29 5724-Y48 5724-Y49 5724-Y54 5724-Y55 5655-Y21
Copyright IBM Corp. 1988, 2022.  All Rights Reserved.

Type 'help' for a list of available commands.
Type 'help' followed by a command name for more
information on commands.

CPLEX> Selected objective sense:  MINIMIZE
Selected objective  name:  00000000
Selected RHS        name:  RHS1
Selected bound      name:  BOUND
Problem 'ee.mps' read.
Read time = 0.03 sec. (3.14 ticks)
CPLEX> New value for time limit in seconds: 7200
CPLEX> New value for parallel optimization mode: -1
CPLEX> New value for default parallel thread count: 40
CPLEX> New value for mixed integer optimality gap tolerance: 1e-13
CPLEX> Version identifier: 22.1.1.0 | 2022-11-28 | 9160aff4d
CPXPARAM_Threads                                 40
CPXPARAM_Parallel                                -1
CPXPARAM_TimeLimit                               7200
CPXPARAM_MIP_Tolerances_MIPGap                   1e-13
Found incumbent of value 0.000000 after 0.00 sec. (0.31 ticks)
Tried aggregator 4 times.
MIP Presolve eliminated 256 rows and 3267 columns.
MIP Presolve modified 5814 coefficients.
Aggregator did 777 substitutions.
Reduced MIP has 3483 rows, 7142 columns, and 26419 nonzeros.
Reduced MIP has 7142 binaries, 0 generals, 0 SOSs, and 0 indicators.
Presolve time = 0.08 sec. (85.20 ticks)
Probing fixed 62 vars, tightened 0 bounds.
Probing time = 0.06 sec. (29.20 ticks)
Tried aggregator 2 times.
Detecting symmetries...
MIP Presolve eliminated 35 rows and 91 columns.
Aggregator did 2 substitutions.
Reduced MIP has 3446 rows, 7043 columns, and 26072 nonzeros.
Reduced MIP has 7043 binaries, 0 generals, 0 SOSs, and 0 indicators.
Presolve time = 0.04 sec. (45.90 ticks)
Probing time = 0.03 sec. (6.66 ticks)
Clique table members: 16942.
MIP emphasis: balance optimality and feasibility.
MIP search method: dynamic search.
Parallel mode: opportunistic, using up to 40 threads.
Root relaxation solution time = 0.09 sec. (71.45 ticks)

        Nodes                                         Cuts/
   Node  Left     Objective  IInf  Best Integer    Best Bound    ItCnt     Gap

*     0+    0                            0.0000  -1.31000e+13              --- 
      0     0  -1.30900e+13    66        0.0000  -1.30900e+13     1766     --- 
*     0+    0                      -1.30800e+13  -1.30900e+13             0.08%
      0     0  -1.30900e+13   159  -1.30800e+13     Cuts: 112     2046    0.08%
*     0+    0                      -1.30900e+13  -1.30900e+13             0.00%
      0     0  -1.30900e+13   196  -1.30900e+13      Cuts: 56     2394    0.00%
*     0+    0                      -1.30900e+13  -1.30900e+13             0.00%
Detecting symmetries...
      0     2  -1.30900e+13   172  -1.30900e+13  -1.30900e+13     2394    0.00%
Elapsed time = 1.64 sec. (871.30 ticks, tree = 0.02 MB, solutions = 4)
    539    28  -1.30900e+13   255  -1.30900e+13  -1.30900e+13    67666    0.00%
   1801    48  -1.30900e+13   142  -1.30900e+13  -1.30900e+13    82826    0.00%
   2648    19        cutoff        -1.30900e+13  -1.30900e+13   131315    0.00%

GUB cover cuts applied:  2
Clique cuts applied:  16
Cover cuts applied:  433
Mixed integer rounding cuts applied:  9
Zero-half cuts applied:  1
Lift and project cuts applied:  2
Gomory fractional cuts applied:  16

Root node processing (before b&c):
  Real time             =    1.00 sec. (869.41 ticks)
Parallel b&c, 40 threads:
  Real time             =    2.77 sec. (836.43 ticks)
  Sync time (average)   =    1.40 sec.
  Wait time (average)   =    0.00 sec.
                          ------------
Total (root+branch&cut) =    3.77 sec. (1705.84 ticks)

Solution pool: 8 solutions saved.

MIP - Integer optimal solution:  Objective = -1.3089999889e+13
Solution time =    3.85 sec.  Iterations = 155722  Nodes = 2812
Deterministic time = 1705.87 ticks  (443.62 ticks/sec)

CPLEX> Solution 'p9' written to file 'ee.sol'.
CPLEX> 